unsat
(:conflicts            1
 :max-generation       1
 :max-memory           22.19
 :memory               20.75
 :mk-bool-var          125
 :mk-clause            9
 :mk-clause-binary     39
 :num-allocs           2222981
 :num-checks           1
 :quant-instantiations 14
 :rlimit-count         21725
 :time                 0.01)
